generated by phonopy                    
   1.00000000000000     
    11.9169218510449078    0.0788455468928820   -0.0809513765787144
    -1.2550447715761539   12.1847245227834602   -0.0238915372729196
    -4.7839540492345538   -5.7291075987300095   18.5414527961909208
   C    H    B    Y 
   130   172     2     2
Direct
  0.4424875156064401  0.4963720912601534  0.1307168751620525
  0.5575125034707229  0.5036279608158506  0.8692831337700594
  0.5544483566189020  0.5626911907382999  0.1375972834098476
  0.4455516563285862  0.4373088608107293  0.8624027269432789
  0.6410271457689751  0.4918041840646786  0.1530490759277360
  0.3589728769780700  0.5081958641766473  0.8469509380256820
  0.5878629169325935  0.3849442914075594  0.1552896496936397
  0.4121371001360423  0.6150557670757135  0.8447103674454398
  0.4661894512669350  0.3904610929668653  0.1438711060944805
  0.5338105739890434  0.6095389543629905  0.8561289087868561
  0.3197743733653468  0.5288216291169513  0.1243526619559142
  0.6802256365045184  0.4711784108734030  0.8756473417609990
  0.3248896110628975  0.6164782699159703  0.1968929121014731
  0.6751103942091592  0.3835217724511851  0.8031070843562229
  0.2286806221321080  0.4224095204587715  0.1126865708548395
  0.7713193962033622  0.5775905130676042  0.8873134199427651
  0.2733140135645374  0.5767247315582646  0.0608075898950587
  0.7266860059907855  0.4232753162716492  0.9391924167761204
  0.5899283749678976  0.6750262972784373  0.1210518375522573
  0.4100716501086192  0.3249737541536018  0.8789481728130973
  0.5325706699217024  0.7776504690790353  0.1499866267975956
  0.4674293507425779  0.2223495857681854  0.8500133758280085
  0.7232485867180657  0.7156581740527820  0.1535732102010163
  0.2767514313761110  0.2843418766999215  0.8464268082647748
  0.5632744622732555  0.6484772769001972  0.0385080948069001
  0.4367255723628324  0.3515227692917808  0.9614919183351712
  0.6434468981954606  0.2773582874816234  0.1525259292142157
  0.3565531265790682  0.7226417681022802  0.8474740942065735
  0.6034390731381528  0.2096218489366402  0.1996369396933287
  0.3965609303575326  0.7903782013311107  0.8003630788458963
  0.6035488345969591  0.1983973191974615  0.0734577027660305
  0.3964511995716627  0.8016027290735861  0.9265423215499853
  0.7781340669349428  0.3072485332497152  0.1747570021112382
  0.2218659538372346  0.6927515220125181  0.8252430239041044
  0.6789057232324125  0.5555407423167429  0.3912293249325962
  0.3210942927433241  0.4444593072422911  0.6087706854057723
  0.6139935978933136  0.6498123754216588  0.4015390847878849
  0.3860064274668945  0.3501876721142393  0.5984609265355514
  0.4926534571979868  0.5994012897176221  0.3824153464186912
  0.5073465653244772  0.4005987600157018  0.6175846676986417
  0.4784733636452222  0.4780219248112015  0.3609166810118434
  0.5215266577482250  0.5219781179215709  0.6390833347863361
  0.5935012936099918  0.4520763523907589  0.3656636553373211
  0.4064987355827844  0.5479236981902977  0.6343363592241795
  0.8111489310272304  0.5538580596268796  0.4036862934454934
  0.1888510959996475  0.4461419881192042  0.5963137214845224
  0.8330833562128074  0.4295458443298001  0.3818757659664130
  0.1669166606671373  0.5704542002551009  0.6181242492423276
  0.8788886457772522  0.6048977871492043  0.4845360300330376
  0.1211113580078658  0.3951022587340075  0.5154639904961552
  0.8620849480270866  0.6149922376548037  0.3566266393081656
  0.1379150852312583  0.3850078231528541  0.6433733859135433
  0.6468191313114902  0.7803650683307214  0.4158018413578193
  0.3531808874871757  0.2196349777517408  0.5841981684505982
  0.6384686243383624  0.8002055609062967  0.3418251056662999
  0.3615314072268523  0.1997944937822591  0.6581749077052186
  0.7673598170346014  0.8390516722064576  0.4685538868427165
  0.2326401892819527  0.1609483848472674  0.5314461394770303
  0.5558651785860028  0.8423433146483429  0.4465046628132578
  0.4441348266605098  0.1576567357468087  0.5534953392945883
  0.3677476001274807  0.3941369287503322  0.3497449260688598
  0.6322524282045362  0.6058631217948426  0.6502550937690463
  0.3533428571726612  0.2857989759196647  0.2865031542574993
  0.6466571624118359  0.7142010714444463  0.7134968570475198
  0.3812421670926915  0.3600823402637708  0.4201273438923281
  0.6187578540312964  0.6399176966804796  0.5798726715216739
  0.2569924644553879  0.4492729221068759  0.3359362285861063
  0.7430075641488600  0.5507271250041043  0.6640637921472468
  0.0677160676865897  0.7634820101305028  0.2356916281496572
  0.9322839495604562  0.2365180142132177  0.7643083884822582
  0.0505973838393797  0.6517254005923866  0.2422117083356068
  0.9494026159828356  0.3482746265774675  0.7577882974562119
  0.0015273356130654  0.5544108620801602  0.1827135424068357
  0.9984726659475281  0.4455891660783572  0.8172864757330008
  0.9682177470820376  0.5649450759367454  0.1129278455043526
  0.0317822586540031  0.4350549538629765  0.8870721592070425
  0.9821605472076386  0.6746249077644099  0.1042135575610451
  0.0178394782755502  0.3253751249023024  0.8957864591011251
  0.0291281459886114  0.7711095715680152  0.1644687684247558
  0.9708718712743021  0.2288904491457557  0.8355312347809070
  0.2593854485944759  0.9316243676257994  0.3003481967893650
  0.7406145591485216  0.0683756580057575  0.6996518076864934
  0.3470096961887076  0.9980049171251818  0.3635065759734910
  0.6529903228455243  0.0019951020092647  0.6364934387181744
  0.4564386670982188  0.0489432486492074  0.3625176559402959
  0.5435613401498357  0.9510567719142402  0.6374823509289537
  0.4826919017318634  0.0370382047774880  0.2969720275400563
  0.5173081100805825  0.9629618408653403  0.7030279855478709
  0.3975136356394805  0.9737233592000210  0.2330721282278674
  0.6024863672928018  0.0262766932114941  0.7669278775734227
  0.2894624403754457  0.9214453740034966  0.2353247381300225
  0.7105375677282163  0.0785546763994994  0.7646752674637886
  0.1468803531393826  0.8464820395442922  0.3817126837985098
  0.8531196554756281  0.1535179916753636  0.6182873210979327
  0.2332711322300542  0.7813011547957929  0.4025621801541748
  0.7667288699047504  0.2186988699502510  0.5974378269244295
  0.2575852049280908  0.7577284036972713  0.4688798557757601
  0.7424147924112104  0.2422716257097473  0.5311201476731930
  0.1939296280326017  0.7985092086510537  0.5175630783894187
  0.8060703804504540  0.2014908203339170  0.4824369301719322
  0.1046785592474189  0.8595700260589377  0.4978908232778835
  0.8953214416006992  0.1404300107397081  0.5021091808950986
  0.0822135718817386  0.8824991555349434  0.4312328682176021
  0.9177864384671035  0.1175008779454467  0.5687671417544320
  0.0435306779053154  0.9755777740382984  0.3040870268014359
  0.9564693383242406  0.0244222532034554  0.6959129739605507
  0.0837607044623953  0.0944468743794284  0.3233338195807762
  0.9162393042650521  0.9055531496312883  0.6766661796184275
  0.0072627647917874  0.1743326825868004  0.3261342373826474
  0.9927372598235731  0.8256673467062408  0.6738657628217615
  0.8862775999251870  0.1375728800307204  0.3087036357971675
  0.1137224062613663  0.8624271488832745  0.6912963689884232
  0.8431963731287107  0.0201760582494435  0.2895544317693431
  0.1568036511321674  0.9798239728429470  0.7104455749719246
  0.9210273682566819  0.9419521826254371  0.2879557865781331
  0.0789726356520991  0.0580478439601651  0.7120442091719259
  0.9399058662918055  0.1043100594009325  0.0830785271228638
  0.0600941550650625  0.8956899843707949  0.9169214796866434
  0.8825379295334863  0.0095716625549527  0.0957702520639773
  0.1174620848289628  0.9904283600238643  0.9042297642543047
  0.7939778885896305  0.9296388861272110  0.0403590239163952
  0.2060221262581190  0.0703611491299975  0.9596409847870786
  0.7603686604236488  0.9436713934796690  0.9714961910625787
  0.2396313497971810  0.0563286376928425  0.0285038291999971
  0.8162684745684702  0.0381533810480710  0.9582951174700293
  0.1837315334706384  0.9618466639926497  0.0417048916255570
  0.9050495679394968  0.1173947265758739  0.0136318002172659
  0.0949504424795826  0.8826053102393419  0.9863682115886079
  0.0383194031071162  0.1881070537932941  0.1418027101232755
  0.9616806246364865  0.8118929775963735  0.8581972989094641
  0.7337108744234659  0.5143367096086179  0.1580148791839090
  0.2662891428071666  0.4856633431353959  0.8419851322229597
  0.3997031975388317  0.3208802177612301  0.1407411235983702
  0.6002968269039379  0.6791198336753136  0.8592588922951281
  0.3465067483401766  0.5789107947362644  0.2427225318840591
  0.6534932632555263  0.4210892563239832  0.7572774737572803
  0.2389294627732577  0.6409123186148008  0.1983342568777407
  0.7610705335081387  0.3590877143861509  0.8016657391521372
  0.3859159933326283  0.6969821735832942  0.2092872027278000
  0.6140840012065947  0.3030178710982617  0.7907127892507979
  0.2277967491545696  0.3531103905646347  0.0647021464266008
  0.7722032663872307  0.6468896579024309  0.9352978390443495
  0.1410039797375036  0.4459523556962344  0.1048515889029438
  0.8589960361804441  0.5540476708255831  0.8951484154102995
  0.2447139592338837  0.3884942220981345  0.1592358268419489
  0.7552860688151030  0.6115057860126476  0.8407641604360044
  0.2577248021423837  0.5096846270629860  0.0091859692162660
  0.7422752287994995  0.4903154319605841  0.9908140313755734
  0.3323390940924495  0.6500006207905704  0.0600680342283023
  0.6676609206444555  0.3499994400053987  0.9399319825873459
  0.1890214116655417  0.6042664318376363  0.0635414773936807
  0.8109785991209587  0.3957336047467744  0.9364585251456991
  0.4366704955114560  0.7616243904664879  0.1309486510650033
  0.5633295258007831  0.2383756806668763  0.8690513265716231
  0.5631797753571890  0.8498850949923978  0.1322449404307373
  0.4368202867455467  0.1501149673090195  0.8677550784829439
  0.5580742032541172  0.8079831058362703  0.2092356915368440
  0.4419257757817384  0.1920169375256659  0.7907643112779358
  0.7514506642027780  0.7230896787842692  0.2114738324735407
  0.2485493502796672  0.2769103402720821  0.7885261837326951
  0.7484059441849849  0.8009819902543993  0.1485719435434446
  0.2515940861215811  0.1990180645495562  0.8514280930206793
  0.7748118777668325  0.6584337887356659  0.1271292783115352
  0.2251881499237565  0.3415662666601147  0.8728707355152147
  0.6094352674494363  0.5805359990720869  0.0170241602603148
  0.3905647622897832  0.4194640399407670  0.9829758547812920
  0.5926796599649147  0.7252295043014049  0.0246279489290893
  0.4073203832060626  0.2747705372971280  0.9753720590297487
  0.4694897825217136  0.6200625402113951  0.0103271384354263
  0.5305102488733895  0.3799375119162231  0.9896728710553644
  0.6315617648003172  0.2596217598895403  0.2569849549968898
  0.3684382359628551  0.7403782782004242  0.7430150645546173
  0.6411690097473705  0.1304353941765442  0.1941736209438940
  0.3588309990574051  0.8695646517957912  0.8058263933367431
  0.5073732595006913  0.1851800322397158  0.1837873330624457
  0.4926267544268275  0.8148200174407574  0.8162126784935014
  0.5077883369931269  0.1704115243258323  0.0544365988945963
  0.4922116918669171  0.8295885339257758  0.9455634207672011
  0.6453281564600193  0.1216119615825455  0.0694769505925553
  0.3546718647503631  0.8783880816259134  0.9305230855092400
  0.6293284790531644  0.2424440797554756  0.0369250325544184
  0.3706715722217169  0.7575559535655891  0.9630749921259136
  0.8080083214995195  0.3411080367855235  0.1352288266195856
  0.1919917025665915  0.6588920334498279  0.8647712085592932
  0.8166769947332966  0.2299930571131223  0.1768414397204522
  0.1833230255845308  0.7700069921717915  0.8231585785560428
  0.8138282677154910  0.3716041944150327  0.2279236081913832
  0.1861717543972383  0.6283958486568674  0.7720764254225961
  0.4214364832767501  0.6476926678988265  0.3855734754552348
  0.5785635406180990  0.3523073785847086  0.6144265390469709
  0.6142268473769101  0.3660271774129136  0.3563406215041017
  0.3857731806243067  0.6339728733531199  0.6436593950228525
  0.8063069335856564  0.3809564170210979  0.4159024983111412
  0.1936930922980082  0.6190436330361908  0.5840975177873339
  0.9274021361979813  0.4297258942034962  0.3887452226433336
  0.0725978848997667  0.5702741468655318  0.6112547868050366
  0.7867195961490108  0.3838278231540167  0.3251571668769914
  0.2132804173015846  0.6161722225101419  0.6748428501526434
  0.8684862678105775  0.6929957927970487  0.5079435692799531
  0.1315137354139433  0.3070042511011417  0.4920564445878307
  0.9732312169285381  0.6046039565460495  0.4915933432575610
  0.0267687946628158  0.3953960868405854  0.5084066869226285
  0.8488276957110823  0.5521613815322581  0.5156310698600208
  0.1511722941913026  0.4478386655255374  0.4843689445311699
  0.9559428065540954  0.6106739937850749  0.3649133707814994
  0.0440572307359336  0.3893260762965297  0.6350866618122539
  0.8556145278216836  0.7061181460111461  0.3682150835492007
  0.1443854961996847  0.2938819085929757  0.6317849422943755
  0.8192082112211575  0.5724120052262366  0.2983560996764148
  0.1807918321108219  0.4275880562712873  0.7016439217208840
  0.5468096362766990  0.7739731735558533  0.3061613239449605
  0.4531903981389924  0.2260268911365899  0.6938386862597756
  0.7001513982388106  0.7581023858147006  0.3144916030171006
  0.2998486330103255  0.2418976636695917  0.6855084109413412
  0.6601576804857308  0.8916448331032150  0.3464875031825307
  0.3398423644729731  0.1083552208347871  0.6535125149856204
  0.7744159918072934  0.8293778237750107  0.5223981528422195
  0.2255840122637965  0.1706222120691558  0.4776018607918732
  0.7775090433900774  0.9313566951372715  0.4746802155031760
  0.2224909564513793  0.0686433596589672  0.5253198159742086
  0.8417770074573158  0.8087933734337869  0.4511200142318414
  0.1582230167763269  0.1912066979564167  0.5488800090921004
  0.4683806640878071  0.8229558267724871  0.4078036455135393
  0.5316193478393421  0.1770442132350404  0.5921963465187894
  0.5840380772399808  0.9355164276230912  0.4613854338468402
  0.4159619221511116  0.0644836112522007  0.5386145694476692
  0.5483669802388472  0.8199355043845422  0.4950010840260324
  0.4516330055331385  0.1800645342577632  0.5049989132195059
  0.3406106817539570  0.3067731768090971  0.2352496341364016
  0.6593893595067550  0.6932268784456120  0.7647503865722745
  0.2766275462819440  0.2233378925565268  0.2809910681112260
  0.7233724683543122  0.7766621653100805  0.7190089413419128
  0.4298506484066668  0.2426495852932808  0.2940855424041767
  0.5701493681441259  0.7573504531188576  0.7059144771193279
  0.4580741280179838  0.3178759559370019  0.4312788961016485
  0.5419258855264384  0.6821240697626253  0.5687211162242786
  0.3918487683974070  0.4355658863514784  0.4667313320463886
  0.6081512507550667  0.5644341403276047  0.5332686841930303
  0.3032376600368089  0.2998250371530476  0.4154871169423152
  0.6967623535175114  0.7001749984266691  0.5845128898502672
  0.2596786369335538  0.5239203161254851  0.3813678020360025
  0.7403213962508176  0.4760797327987789  0.6186322232299593
  0.1793010628051948  0.3861951719815278  0.3280868896272447
  0.8206989670135902  0.6138048768559790  0.6719131359024346
  0.2429844764145391  0.4770136647267524  0.2869313099163715
  0.7570155480463783  0.5229863856831997  0.7130687137769955
  0.0774081863599194  0.6401679046206515  0.2958345176100288
  0.9225918087479159  0.3598321198706623  0.7041654957569644
  0.9907756979786553  0.4698806324715426  0.1910352357433337
  0.0092242852270135  0.5301193999703041  0.8089647746325228
  0.9314532010247751  0.4892629614518372  0.0661570531611178
  0.0685468031080539  0.5107370705083044  0.9338429593095326
  0.9540639714683712  0.6850886327118545  0.0502522490136380
  0.0459360587486739  0.3149113967296044  0.9497477603050373
  0.0347015964907683  0.8557019258802798  0.1559108360110352
  0.9652984328015196  0.1442981037376924  0.8440891782575514
  0.3290136379281961  0.0086503379401458  0.4154994221000257
  0.6709863822102334  0.9913496564876852  0.5845005839797051
  0.5221622600519242  0.0976985198182423  0.4130685351344526
  0.4778377546742232  0.9023014985009709  0.5869314790735597
  0.5677496621617829  0.0769208800057212  0.2957188909633963
  0.4322503433237411  0.9230791680016157  0.7042811211138555
  0.4154209126882057  0.9646842948395076  0.1810835008893173
  0.5845790904834302  0.0353157741628183  0.8189165088740229
  0.2265261181084845  0.8701470480866992  0.1843494402705744
  0.7734738846733896  0.1298530140694543  0.8156505627724456
  0.2844437479800147  0.7500291576130018  0.3652259823450908
  0.7155562475868658  0.2499708594639407  0.6347740205692434
  0.3270828662497933  0.7087927399900242  0.4832775773734206
  0.6729171343854464  0.2912072807976284  0.5167224279492131
  0.2136176170093743  0.7840099109587682  0.5704319066942315
  0.7863823853661974  0.2159901250654997  0.4295680986365872
  0.0540743617250720  0.8910162328915773  0.5354338399660682
  0.9459256433014701  0.1089837968033464  0.4645661650991351
  0.0135399778572244  0.9327351424885459  0.4181679988266696
  0.9864600284773282  0.0672648947000102  0.5818320067462022
  0.1779864079691829  0.1253007213121293  0.3366680704937419
  0.8220136102065858  0.8746993020823549  0.6633319314482000
  0.0420163377660792  0.2660070896967066  0.3418844800227571
  0.9579836785929385  0.7339929341507562  0.6581155119480104
  0.8264815770790700  0.1994159898543590  0.3099581553141211
  0.1735184448380190  0.8005840397945289  0.6900418572451904
  0.7486857880716260  0.9898700680647393  0.2758164714334254
  0.2513142205955389  0.0101299622162615  0.7241835400629144
  0.8864861585626447  0.8506611914180844  0.2736026405343346
  0.1135138513046336  0.1493388380728999  0.7263973461704942
  0.9075572436088922  0.9984434745082156  0.1496440304594265
  0.0924427794895164  0.0015565565909045  0.8503559771357347
  0.7514779720823068  0.8558814567208233  0.0511655429599474
  0.2485220521207689  0.1441185779861488  0.9488344721163195
  0.6910365235982058  0.8815107848527924  0.9282156667471453
  0.3089634824925877  0.1184892485196873  0.0717843466707586
  0.7915607418677241  0.0491081894337606  0.9044876171305577
  0.2084392580155481  0.9508918501840414  0.0955123975485592
  0.9490927944444125  0.1902384900377526  0.0025550624134063
  0.0509072125595352  0.8097615424703379  0.9974449465735451
  0.1237124080527111  0.1720141148856337  0.1332532477370157
  0.8762876054471390  0.8279859533442541  0.8667467352243400
  0.0389377327610976  0.1804779290069018  0.1953397339527458
  0.9610623343090140  0.8195220607633299  0.8046602689166679
  0.0320330119030954  0.2771093147466940  0.1420720090963697
  0.9679669790238211  0.7228907155133742  0.8579280247931516
  0.1294834463296163  0.8783721694076703  0.3049743012371293
  0.8705165649878871  0.1216278579135717  0.6950257052748667
  0.5563396345682520  0.5546296597950663  0.2648802770283949
  0.4436603823532030  0.4453703929892145  0.7351197350879791
 
  0.00000000E+00  0.00000000E+00  0.00000000E+00
  0.00000000E+00  0.00000000E+00  0.00000000E+00
  0.00000000E+00  0.00000000E+00  0.00000000E+00
  0.00000000E+00  0.00000000E+00  0.00000000E+00
  0.00000000E+00  0.00000000E+00  0.00000000E+00
  0.00000000E+00  0.00000000E+00  0.00000000E+00
  0.00000000E+00  0.00000000E+00  0.00000000E+00
  0.00000000E+00  0.00000000E+00  0.00000000E+00
  0.00000000E+00  0.00000000E+00  0.00000000E+00
  0.00000000E+00  0.00000000E+00  0.00000000E+00
  0.00000000E+00  0.00000000E+00  0.00000000E+00
  0.00000000E+00  0.00000000E+00  0.00000000E+00
  0.00000000E+00  0.00000000E+00  0.00000000E+00
  0.00000000E+00  0.00000000E+00  0.00000000E+00
  0.00000000E+00  0.00000000E+00  0.00000000E+00
  0.00000000E+00  0.00000000E+00  0.00000000E+00
  0.00000000E+00  0.00000000E+00  0.00000000E+00
  0.00000000E+00  0.00000000E+00  0.00000000E+00
  0.00000000E+00  0.00000000E+00  0.00000000E+00
  0.00000000E+00  0.00000000E+00  0.00000000E+00
  0.00000000E+00  0.00000000E+00  0.00000000E+00
  0.00000000E+00  0.00000000E+00  0.00000000E+00
  0.00000000E+00  0.00000000E+00  0.00000000E+00
  0.00000000E+00  0.00000000E+00  0.00000000E+00
  0.00000000E+00  0.00000000E+00  0.00000000E+00
  0.00000000E+00  0.00000000E+00  0.00000000E+00
  0.00000000E+00  0.00000000E+00  0.00000000E+00
  0.00000000E+00  0.00000000E+00  0.00000000E+00
  0.00000000E+00  0.00000000E+00  0.00000000E+00
  0.00000000E+00  0.00000000E+00  0.00000000E+00
  0.00000000E+00  0.00000000E+00  0.00000000E+00
  0.00000000E+00  0.00000000E+00  0.00000000E+00
  0.00000000E+00  0.00000000E+00  0.00000000E+00
  0.00000000E+00  0.00000000E+00  0.00000000E+00
  0.00000000E+00  0.00000000E+00  0.00000000E+00
  0.00000000E+00  0.00000000E+00  0.00000000E+00
  0.00000000E+00  0.00000000E+00  0.00000000E+00
  0.00000000E+00  0.00000000E+00  0.00000000E+00
  0.00000000E+00  0.00000000E+00  0.00000000E+00
  0.00000000E+00  0.00000000E+00  0.00000000E+00
  0.00000000E+00  0.00000000E+00  0.00000000E+00
  0.00000000E+00  0.00000000E+00  0.00000000E+00
  0.00000000E+00  0.00000000E+00  0.00000000E+00
  0.00000000E+00  0.00000000E+00  0.00000000E+00
  0.00000000E+00  0.00000000E+00  0.00000000E+00
  0.00000000E+00  0.00000000E+00  0.00000000E+00
  0.00000000E+00  0.00000000E+00  0.00000000E+00
  0.00000000E+00  0.00000000E+00  0.00000000E+00
  0.00000000E+00  0.00000000E+00  0.00000000E+00
  0.00000000E+00  0.00000000E+00  0.00000000E+00
  0.00000000E+00  0.00000000E+00  0.00000000E+00
  0.00000000E+00  0.00000000E+00  0.00000000E+00
  0.00000000E+00  0.00000000E+00  0.00000000E+00
  0.00000000E+00  0.00000000E+00  0.00000000E+00
  0.00000000E+00  0.00000000E+00  0.00000000E+00
  0.00000000E+00  0.00000000E+00  0.00000000E+00
  0.00000000E+00  0.00000000E+00  0.00000000E+00
  0.00000000E+00  0.00000000E+00  0.00000000E+00
  0.00000000E+00  0.00000000E+00  0.00000000E+00
  0.00000000E+00  0.00000000E+00  0.00000000E+00
  0.00000000E+00  0.00000000E+00  0.00000000E+00
  0.00000000E+00  0.00000000E+00  0.00000000E+00
  0.00000000E+00  0.00000000E+00  0.00000000E+00
  0.00000000E+00  0.00000000E+00  0.00000000E+00
  0.00000000E+00  0.00000000E+00  0.00000000E+00
  0.00000000E+00  0.00000000E+00  0.00000000E+00
  0.00000000E+00  0.00000000E+00  0.00000000E+00
  0.00000000E+00  0.00000000E+00  0.00000000E+00
  0.00000000E+00  0.00000000E+00  0.00000000E+00
  0.00000000E+00  0.00000000E+00  0.00000000E+00
  0.00000000E+00  0.00000000E+00  0.00000000E+00
  0.00000000E+00  0.00000000E+00  0.00000000E+00
  0.00000000E+00  0.00000000E+00  0.00000000E+00
  0.00000000E+00  0.00000000E+00  0.00000000E+00
  0.00000000E+00  0.00000000E+00  0.00000000E+00
  0.00000000E+00  0.00000000E+00  0.00000000E+00
  0.00000000E+00  0.00000000E+00  0.00000000E+00
  0.00000000E+00  0.00000000E+00  0.00000000E+00
  0.00000000E+00  0.00000000E+00  0.00000000E+00
  0.00000000E+00  0.00000000E+00  0.00000000E+00
  0.00000000E+00  0.00000000E+00  0.00000000E+00
  0.00000000E+00  0.00000000E+00  0.00000000E+00
  0.00000000E+00  0.00000000E+00  0.00000000E+00
  0.00000000E+00  0.00000000E+00  0.00000000E+00
  0.00000000E+00  0.00000000E+00  0.00000000E+00
  0.00000000E+00  0.00000000E+00  0.00000000E+00
  0.00000000E+00  0.00000000E+00  0.00000000E+00
  0.00000000E+00  0.00000000E+00  0.00000000E+00
  0.00000000E+00  0.00000000E+00  0.00000000E+00
  0.00000000E+00  0.00000000E+00  0.00000000E+00
  0.00000000E+00  0.00000000E+00  0.00000000E+00
  0.00000000E+00  0.00000000E+00  0.00000000E+00
  0.00000000E+00  0.00000000E+00  0.00000000E+00
  0.00000000E+00  0.00000000E+00  0.00000000E+00
  0.00000000E+00  0.00000000E+00  0.00000000E+00
  0.00000000E+00  0.00000000E+00  0.00000000E+00
  0.00000000E+00  0.00000000E+00  0.00000000E+00
  0.00000000E+00  0.00000000E+00  0.00000000E+00
  0.00000000E+00  0.00000000E+00  0.00000000E+00
  0.00000000E+00  0.00000000E+00  0.00000000E+00
  0.00000000E+00  0.00000000E+00  0.00000000E+00
  0.00000000E+00  0.00000000E+00  0.00000000E+00
  0.00000000E+00  0.00000000E+00  0.00000000E+00
  0.00000000E+00  0.00000000E+00  0.00000000E+00
  0.00000000E+00  0.00000000E+00  0.00000000E+00
  0.00000000E+00  0.00000000E+00  0.00000000E+00
  0.00000000E+00  0.00000000E+00  0.00000000E+00
  0.00000000E+00  0.00000000E+00  0.00000000E+00
  0.00000000E+00  0.00000000E+00  0.00000000E+00
  0.00000000E+00  0.00000000E+00  0.00000000E+00
  0.00000000E+00  0.00000000E+00  0.00000000E+00
  0.00000000E+00  0.00000000E+00  0.00000000E+00
  0.00000000E+00  0.00000000E+00  0.00000000E+00
  0.00000000E+00  0.00000000E+00  0.00000000E+00
  0.00000000E+00  0.00000000E+00  0.00000000E+00
  0.00000000E+00  0.00000000E+00  0.00000000E+00
  0.00000000E+00  0.00000000E+00  0.00000000E+00
  0.00000000E+00  0.00000000E+00  0.00000000E+00
  0.00000000E+00  0.00000000E+00  0.00000000E+00
  0.00000000E+00  0.00000000E+00  0.00000000E+00
  0.00000000E+00  0.00000000E+00  0.00000000E+00
  0.00000000E+00  0.00000000E+00  0.00000000E+00
  0.00000000E+00  0.00000000E+00  0.00000000E+00
  0.00000000E+00  0.00000000E+00  0.00000000E+00
  0.00000000E+00  0.00000000E+00  0.00000000E+00
  0.00000000E+00  0.00000000E+00  0.00000000E+00
  0.00000000E+00  0.00000000E+00  0.00000000E+00
  0.00000000E+00  0.00000000E+00  0.00000000E+00
  0.00000000E+00  0.00000000E+00  0.00000000E+00
  0.00000000E+00  0.00000000E+00  0.00000000E+00
  0.00000000E+00  0.00000000E+00  0.00000000E+00
  0.00000000E+00  0.00000000E+00  0.00000000E+00
  0.00000000E+00  0.00000000E+00  0.00000000E+00
  0.00000000E+00  0.00000000E+00  0.00000000E+00
  0.00000000E+00  0.00000000E+00  0.00000000E+00
  0.00000000E+00  0.00000000E+00  0.00000000E+00
  0.00000000E+00  0.00000000E+00  0.00000000E+00
  0.00000000E+00  0.00000000E+00  0.00000000E+00
  0.00000000E+00  0.00000000E+00  0.00000000E+00
  0.00000000E+00  0.00000000E+00  0.00000000E+00
  0.00000000E+00  0.00000000E+00  0.00000000E+00
  0.00000000E+00  0.00000000E+00  0.00000000E+00
  0.00000000E+00  0.00000000E+00  0.00000000E+00
  0.00000000E+00  0.00000000E+00  0.00000000E+00
  0.00000000E+00  0.00000000E+00  0.00000000E+00
  0.00000000E+00  0.00000000E+00  0.00000000E+00
  0.00000000E+00  0.00000000E+00  0.00000000E+00
  0.00000000E+00  0.00000000E+00  0.00000000E+00
  0.00000000E+00  0.00000000E+00  0.00000000E+00
  0.00000000E+00  0.00000000E+00  0.00000000E+00
  0.00000000E+00  0.00000000E+00  0.00000000E+00
  0.00000000E+00  0.00000000E+00  0.00000000E+00
  0.00000000E+00  0.00000000E+00  0.00000000E+00
  0.00000000E+00  0.00000000E+00  0.00000000E+00
  0.00000000E+00  0.00000000E+00  0.00000000E+00
  0.00000000E+00  0.00000000E+00  0.00000000E+00
  0.00000000E+00  0.00000000E+00  0.00000000E+00
  0.00000000E+00  0.00000000E+00  0.00000000E+00
  0.00000000E+00  0.00000000E+00  0.00000000E+00
  0.00000000E+00  0.00000000E+00  0.00000000E+00
  0.00000000E+00  0.00000000E+00  0.00000000E+00
  0.00000000E+00  0.00000000E+00  0.00000000E+00
  0.00000000E+00  0.00000000E+00  0.00000000E+00
  0.00000000E+00  0.00000000E+00  0.00000000E+00
  0.00000000E+00  0.00000000E+00  0.00000000E+00
  0.00000000E+00  0.00000000E+00  0.00000000E+00
  0.00000000E+00  0.00000000E+00  0.00000000E+00
  0.00000000E+00  0.00000000E+00  0.00000000E+00
  0.00000000E+00  0.00000000E+00  0.00000000E+00
  0.00000000E+00  0.00000000E+00  0.00000000E+00
  0.00000000E+00  0.00000000E+00  0.00000000E+00
  0.00000000E+00  0.00000000E+00  0.00000000E+00
  0.00000000E+00  0.00000000E+00  0.00000000E+00
  0.00000000E+00  0.00000000E+00  0.00000000E+00
  0.00000000E+00  0.00000000E+00  0.00000000E+00
  0.00000000E+00  0.00000000E+00  0.00000000E+00
  0.00000000E+00  0.00000000E+00  0.00000000E+00
  0.00000000E+00  0.00000000E+00  0.00000000E+00
  0.00000000E+00  0.00000000E+00  0.00000000E+00
  0.00000000E+00  0.00000000E+00  0.00000000E+00
  0.00000000E+00  0.00000000E+00  0.00000000E+00
  0.00000000E+00  0.00000000E+00  0.00000000E+00
  0.00000000E+00  0.00000000E+00  0.00000000E+00
  0.00000000E+00  0.00000000E+00  0.00000000E+00
  0.00000000E+00  0.00000000E+00  0.00000000E+00
  0.00000000E+00  0.00000000E+00  0.00000000E+00
  0.00000000E+00  0.00000000E+00  0.00000000E+00
  0.00000000E+00  0.00000000E+00  0.00000000E+00
  0.00000000E+00  0.00000000E+00  0.00000000E+00
  0.00000000E+00  0.00000000E+00  0.00000000E+00
  0.00000000E+00  0.00000000E+00  0.00000000E+00
  0.00000000E+00  0.00000000E+00  0.00000000E+00
  0.00000000E+00  0.00000000E+00  0.00000000E+00
  0.00000000E+00  0.00000000E+00  0.00000000E+00
  0.00000000E+00  0.00000000E+00  0.00000000E+00
  0.00000000E+00  0.00000000E+00  0.00000000E+00
  0.00000000E+00  0.00000000E+00  0.00000000E+00
  0.00000000E+00  0.00000000E+00  0.00000000E+00
  0.00000000E+00  0.00000000E+00  0.00000000E+00
  0.00000000E+00  0.00000000E+00  0.00000000E+00
  0.00000000E+00  0.00000000E+00  0.00000000E+00
  0.00000000E+00  0.00000000E+00  0.00000000E+00
  0.00000000E+00  0.00000000E+00  0.00000000E+00
  0.00000000E+00  0.00000000E+00  0.00000000E+00
  0.00000000E+00  0.00000000E+00  0.00000000E+00
  0.00000000E+00  0.00000000E+00  0.00000000E+00
  0.00000000E+00  0.00000000E+00  0.00000000E+00
  0.00000000E+00  0.00000000E+00  0.00000000E+00
  0.00000000E+00  0.00000000E+00  0.00000000E+00
  0.00000000E+00  0.00000000E+00  0.00000000E+00
  0.00000000E+00  0.00000000E+00  0.00000000E+00
  0.00000000E+00  0.00000000E+00  0.00000000E+00
  0.00000000E+00  0.00000000E+00  0.00000000E+00
  0.00000000E+00  0.00000000E+00  0.00000000E+00
  0.00000000E+00  0.00000000E+00  0.00000000E+00
  0.00000000E+00  0.00000000E+00  0.00000000E+00
  0.00000000E+00  0.00000000E+00  0.00000000E+00
  0.00000000E+00  0.00000000E+00  0.00000000E+00
  0.00000000E+00  0.00000000E+00  0.00000000E+00
  0.00000000E+00  0.00000000E+00  0.00000000E+00
  0.00000000E+00  0.00000000E+00  0.00000000E+00
  0.00000000E+00  0.00000000E+00  0.00000000E+00
  0.00000000E+00  0.00000000E+00  0.00000000E+00
  0.00000000E+00  0.00000000E+00  0.00000000E+00